JulietBench/Juliet_Based_Patch_Bench/linux/CWE-189-Numeric-Errors/CVE_2011_1746_b522f02184b413955f3bc952e3776ce41edc6355/Resultagp_allocate_memory_Snippet_patch2NEQ.smt2
; benchmark generated from python API
(set-info :status unknown)
(declare-fun R () (_ BitVec 32))
(declare-fun rdi () (_ BitVec 64))
(declare-fun rsi () (_ BitVec 64))
(assert
 (let (($x51 (= (_ bv50 32) R)))
 (let ((?x6 ((_ extract 31 0) rdi)))
 (let ((?x10 ((_ sign_extend 32) ?x6)))
 (let (($x143 (bvule (_ bv60 64) ?x10)))
 (let (($x55 (and $x143 $x51)))
 (let (($x37 (= (_ bv0 32) R)))
 (let (($x215 (bvugt (_ bv60 64) ?x10)))
 (let (($x54 (and $x215 $x37)))
 (let (($x56 (or $x54 $x55)))
 (let (($x59 (not $x56)))
 (let ((?x9 (bvadd (_ bv50 64) rsi)))
 (let (($x11 (bvule ?x9 ?x10)))
 (let (($x52 (and $x11 $x51)))
 (let (($x113 (bvugt ?x9 ?x10)))
 (let (($x45 (and $x113 $x37)))
 (let (($x53 (or $x45 $x52)))
 (let (($x58 (not $x53)))
 (let (($x60 (and $x58 $x59)))
 (let (($x57 (and $x53 $x56)))
 (let (($x61 (or $x57 $x60)))
 (not $x61))))))))))))))))))))))
(check-sat)
